NAME : pairopt
TYPE : ACVRP
DIMENSION : 8
EDGE_WEIGHT_TYPE : EXPLICIT
EDGE_WEIGHT_FORMAT : FULL_MATRIX
CAPACITY : 18750
VEHICLES : 2
EDGE_WEIGHT_SECTION
100000 -100000 -100000 100000 100000 100000 100000 100000 
100000 100000 1000000 50710 50607 526 372 315 
100000 1000000 100000 51540 51359 51391 51188 50955 
0 50710 51540 100000 266 265 100707 101581 
0 50607 51359 266 100000 100707 100500 101500 
0 526 51391 265 100707 100000 100500 702 
0 372 51188 100707 100500 100500 100000 634 
0 315 50955 101581 101500 702 634 100000 
DEMAND_SECTION
1 0
2 0
3 0
4 5000
5 5000
6 5000
7 5000
8 5000
DEPOT_SECTION
1
EOF